CMD:
./solvers/bin/cadical --plain --no-reduce -t 1600 ./data/cnfs//6s339rb22/6s339rb22.58.cnf

c --- [ banner ] -------------------------------------------------------------
c 
c CaDiCaL SAT Solver
c Copyright (c) 2016-2024
c A. Biere, M. Fleury, N. Froleyks, K. Fazekas, F. Pollitt, T. Faller
c JKU Linz, University of Freiburg, TU Wien
c 
c Version 2.1.3 5296d3d2a9bf48c154ab2acb5e44625776d821bf
c g++ (Gentoo 12.3.1_p20230526 p2) 12.3.1 20230526 -Wall -Wextra -O3 -DNDEBUG
c Sat Aug 9 07:26:21 PDT 2025 Linux cedar2.int.cedar.computecanada.ca 5.14.0-362.24.2.el9_3.x86_64 x86_64
c 
c --- [ limit ] --------------------------------------------------------------
c 
c setting time limit to 1600 seconds real time (due to '-t 1600')
c 
c --- [ parsing input ] ------------------------------------------------------
c 
c reading DIMACS file from './data/cnfs//6s339rb22/6s339rb22.58.cnf'
c opening file to read './data/cnfs//6s339rb22/6s339rb22.58.cnf'
c found 'p cnf 590265 1663211' header
c parsed 1663211 clauses in 0.25 seconds process time
c 
c --- [ options ] ------------------------------------------------------------
c 
c   --compact=false                (different from default 'true')
c   --decompose=false              (different from default 'true')
c   --deduplicate=false            (different from default 'true')
c   --elim=false                   (different from default 'true')
c   --probe=false                  (different from default 'true')
c   --reduce=false                 (different from default 'true')
c   --subsume=false                (different from default 'true')
c   --ternary=false                (different from default 'true')
c   --transred=false               (different from default 'true')
c   --vivify=false                 (different from default 'true')
c 
c --- [ solving ] ------------------------------------------------------------
c 
c time measured in process time since initialization
c 
c  seconds   reductions  redundant   irredundant
c          MB    restarts       trail        variables
c           level   conflicts       glue           remaining
c 
c *  0.25 227  0 0   0    0    0  0% 0 1229235 362821 61%
c {  0.35 233  0 0   0    0    0  0% 0 1229235 362821 61%
c i  0.35 233 132 0   0    1    0 42% 0 1229235 362820 61%
c i  0.35 233 132 0   0    2    0 42% 0 1229235 362819 61%
c i  0.35 233 132 0   0    3    0 42% 0 1229235 362818 61%
c i  0.35 233 133 0   1    7    3 42% 0 1229235 362801 61%
c i  0.36 233 133 0   1    8    3 42% 0 1229235 362778 61%
c }  0.36 233 133 0   1   10    3 42% 0 1229235 362485 61%
c 0  0.36 233 133 0   1   10    3 42% 0 1229235 362485 61%
c 
c --- [ result ] -------------------------------------------------------------
c 
s UNSATISFIABLE
c 
c --- [ run-time profiling ] -------------------------------------------------
c 
c process time taken by individual solving procedures
c (percentage relative to process time for solving)
c 
c         0.25  230.11% parse
c         0.11   99.90% search
c         0.10   94.79% lucky
c         0.01    5.08% unstable
c         0.00    0.00% simplify
c   =================================
c         0.11   30.25% solve
c 
c last line shows process time for solving
c (percentage relative to total process time)
c 
c --- [ statistics ] ---------------------------------------------------------
c 
c chronological:                 8        80.00 %  of conflicts
c conflicts:                    10        92.91    per second
c decisions:                   141      1310.09    per second
c fixed:                    223032        37.79 %  of all variables
c learned:                       9        90.00 %  per conflict
c learned_lits:                 14       100.00 %  learned literals
c minimized:                     0         0.00 %  learned literals
c shrunken:                      2        14.29 %  learned literals
c minishrunken:                  0         0.00 %  learned literals
c otfs:                          0         0.00 %  of conflict
c propagations:             247428         2.30 M  per second
c restarts:                      1        10.00    interval
c 
c seconds are measured in process time for solving
c 
c --- [ resources ] ----------------------------------------------------------
c 
c total process time since initialization:         0.36    seconds
c total real time since initialization:            0.36    seconds
c maximum resident set size of process:          230.73    MB
c 
c --- [ shutting down ] ------------------------------------------------------
c 
c exit 20
